0000000000000000
0000000000000000
0011111111110000
0011111111110000
0000000011000000
0000000011000000
0000000011000000
0000000011000000
0000000011000000
0000000011000000
0000000011000000
0000000000000000
0000000000000000
0000000000000000
0000000000000000
0000000000000000